aDASdASDA
 1.0
 3.88 0.00 0.00
 0.00 3.88 0.00
 0.00 0.00 9.55
Hg Ba Cu O
 1 2 1 4
Direct
            0.0000000000000000  0.0000000000000000  0.0000000000000000
            0.5000000000000000  0.5000000000000000  0.6962816019750000
            0.5000000000000000  0.5000000000000000  0.3037183980250000
            0.0000000000000000  0.0000000000000000  0.5000000000000000
            0.0000000000000000  0.0000000000000000  0.7933453825080000
            0.0000000000000000  0.0000000000000000  0.2066546174920000
            0.0000000000000000  0.5000000000000000  0.5000000000000000
            0.5000000000000000  0.0000000000000000  0.5000000000000000

