pnopy
   2
     0.0 1.0 1.0
     1.0 0.0 1.0
     1.0 1.0 0.0
   Li H
     1 1
Direct
  0.0000000000000000  0.0000000000000000  0.0000000000000000
  0.5000000000000000  0.5000000000000000  0.5000000000000000
