generated by phonopy                    
   1.00000000000000     
     7.7430000000000003    0.0000000000000000    0.0000000000000000
     0.0000000000000000    7.7430000000000003    0.0000000000000000
     0.0000000000000000    0.0000000000000000   11.7379999999999995
   Y    Ba   Cu   O 
     4     8    12    24
Direct
  0.2500000000000000  0.2500000000000000  0.5000000000000000
  0.7500000000000000  0.2500000000000000  0.5000000000000000
  0.2500000000000000  0.7500000000000000  0.5000000000000000
  0.7500000000000000  0.7500000000000000  0.5000000000000000
  0.2500000000000000  0.2500000000000000  0.1954966186373796
  0.7500000000000000  0.2500000000000000  0.1954966186373796
  0.2500000000000000  0.7500000000000000  0.1954966186373796
  0.7500000000000000  0.7500000000000000  0.1954966186373796
  0.2500000000000000  0.2500000000000000  0.8045033813626205
  0.7500000000000000  0.2500000000000000  0.8045033813626205
  0.2500000000000000  0.7500000000000000  0.8045033813626205
  0.7500000000000000  0.7500000000000000  0.8045033813626205
 -0.0000000000000000 -0.0000000000000000  0.3596893356394087
  0.5000000000000000 -0.0000000000000000  0.3596893356394087
 -0.0000000000000000  0.5000000000000000  0.3596893356394087
  0.5000000000000000  0.5000000000000000  0.3596893356394087
 -0.0000000000000000 -0.0000000000000000  0.6403106643605913
  0.5000000000000000 -0.0000000000000000  0.6403106643605913
  0.0000000000000000  0.5000000000000000  0.6403106643605913
  0.5000000000000000  0.5000000000000000  0.6403106643605913
 -0.0000000000000000  0.0000000000000000  0.0000000000000000
  0.5000000000000000  0.0000000000000000  0.0000000000000000
  0.0000000000000000  0.5000000000000000  0.0000000000000000
  0.5000000000000000  0.5000000000000000  0.0000000000000000
  0.0000000000000000  0.2500000000000000  0.6208143387345542
  0.5000000000000000  0.2500000000000000  0.6208143387345542
  0.0000000000000000  0.7500000000000000  0.6208143387345542
  0.5000000000000000  0.7500000000000000  0.6208143387345542
  0.2500000000000000  0.0000000000000000  0.3791856612654458
  0.7500000000000000  0.0000000000000000  0.3791856612654458
  0.2500000000000000  0.5000000000000000  0.3791856612654458
  0.7500000000000000  0.5000000000000000  0.3791856612654458
  0.2500000000000000  0.0000000000000000  0.6208143387345542
  0.7500000000000000  0.0000000000000000  0.6208143387345542
  0.2500000000000000  0.5000000000000000  0.6208143387345542
  0.7500000000000000  0.5000000000000000  0.6208143387345542
  0.0000000000000000  0.0000000000000000  0.1512518670674797
  0.5000000000000000  0.0000000000000000  0.1512518670674797
  0.0000000000000000  0.5000000000000000  0.1512518670674797
  0.5000000000000000  0.5000000000000000  0.1512518670674797
 -0.0000000000000000  0.2500000000000000  0.3791856612654458
  0.5000000000000000  0.2500000000000000  0.3791856612654458
 -0.0000000000000000  0.7500000000000000  0.3791856612654458
  0.5000000000000000  0.7500000000000000  0.3791856612654458
 -0.0000000000000000  0.0000000000000000  0.8487481329325203
  0.5000000000000000  0.0000000000000000  0.8487481329325203
 -0.0000000000000000  0.5000000000000000  0.8487481329325203
  0.5000000000000000  0.5000000000000000  0.8487481329325203
 
