generated by phonopy
   1.0
     3.8715000000000002    0.0000000000000000    0.0000000000000000
     0.0000000000000000    3.8715000000000002    0.0000000000000000
     0.0000000000000000    0.0000000000000000   11.7379999999999995
 Y Ba Cu O
   1    2    3    6
Direct
  0.5000000000000000  0.5000000000000000  0.5000000000000000
  0.5000000000000000  0.5000000000000000  0.1973479982350000
  0.5000000000000000  0.5000000000000000  0.8026520017650001
  0.0000000000000000  0.0000000000000000  0.3681182775670000
  0.0000000000000000  0.0000000000000000  0.6318817224330000
  0.0000000000000000  0.0000000000000000  0.0000000000000000
  0.0000000000000000  0.5000000000000000  0.6204961513790000
  0.5000000000000000  0.0000000000000000  0.3795038486210000
  0.5000000000000000  0.0000000000000000  0.6204961513790000
  0.0000000000000000  0.0000000000000000  0.1503171957590000
  0.0000000000000000  0.5000000000000000  0.3795038486210000
  0.0000000000000000  0.0000000000000000  0.8496828042410001
