### general
ndtset       1 
autoparal    1

### i/o
prtwf            0
prtden           0
prteig           1
getden_filepath "/home/ty/research/projects/abi/MgB2/sigma_0.05/gs_48x48x40/runo_DS1_DEN"
pp_dirpath      "/home/ty/pseudo/abi/JTH-PBE-atomicdata-1.1/ATOMICDATA/"
pseudos         "Mg.GGA_PBE-JTH.xml,B.GGA_PBE-JTH.xml"

### lattice 
ntypat       2
natom        3
typat        1 2 2
znucl        12 5
acell        3.07552605413 3.07552605413 3.52685521480 Angstr
rprim        1.00000000000 0.00000000000 0.00000000000
             0.50000000000 0.86602540378 0.00000000000
             0.00000000000 0.00000000000 1.00000000000
xred         0.00000000000 0.00000000000 0.00000000000
            -0.33333333333 0.66666666667 0.50000000000
             0.33333333333 0.33333333333 0.50000000000

### electrons
nbdbuf       4
nband        28
nspden       1
nsppol       1
spinat       9*0

### scf
iscf        -2
nstep        100
ecut         650 eV
pawecutdg    1400 eV
tolwfr       1e-24
occopt       3 
tsmear       0.05 eV

### kpoints
ngfft        27 27 30
ngfftdg      40 40 45
kptopt       0
